; PUSH cw_4 PUSH cw_4 PUSH cw_3 POP DUP3 DUP2 => PUSH cw_4 DUP1 DUP3 PUSH cw_4
(set-option :produce-proofs true)
; 
(set-info :status unknown)
(declare-fun storage_t ((_ BitVec 256) (_ BitVec 256) (_ BitVec 256) Int (_ BitVec 256)) (_ BitVec 256))
(declare-fun w_3 () (_ BitVec 256))
(declare-fun w_4 () (_ BitVec 256))
(declare-fun storage_s ((_ BitVec 256) (_ BitVec 256) (_ BitVec 256) Int (_ BitVec 256)) (_ BitVec 256))
(declare-fun exc_halt_t (Int) Bool)
(declare-fun exc_halt_s (Int) Bool)
(declare-fun stack_t ((_ BitVec 256) (_ BitVec 256) (_ BitVec 256) Int (_ BitVec 6)) (_ BitVec 256))
(declare-fun stack_s ((_ BitVec 256) (_ BitVec 256) (_ BitVec 256) Int (_ BitVec 6)) (_ BitVec 256))
(declare-fun sc_t (Int) (_ BitVec 6))
(declare-fun sc_s (Int) (_ BitVec 6))
(declare-fun used_gas_t ((_ BitVec 256) (_ BitVec 256) (_ BitVec 256) Int) Int)
(declare-fun used_gas_s ((_ BitVec 256) (_ BitVec 256) (_ BitVec 256) Int) Int)
(assert
 (exists ((x_0 (_ BitVec 256)) )(let (($x4126 (forall ((w (_ BitVec 256)) )(let ((?x8244 (storage_t x_0 w_4 w_3 4 w)))
 (let ((?x5972 (storage_s x_0 w_4 w_3 6 w)))
 (= ?x5972 ?x8244))))
 ))
 (let (($x7854 (exc_halt_t 4)))
 (let (($x772 (exc_halt_s 6)))
 (let (($x4404 (= $x772 $x7854)))
 (let (($x4402 (forall ((n (_ BitVec 6)) )(let ((?x8355 (stack_t x_0 w_4 w_3 4 n)))
 (let ((?x4751 (stack_s x_0 w_4 w_3 6 n)))
 (let (($x792 (= ?x4751 ?x8355)))
 (let ((?x4818 (sc_t 4)))
 (let (($x531 (bvsle ?x4818 n)))
 (or $x531 $x792)))))))
 ))
 (let ((?x4818 (sc_t 4)))
 (let ((?x926 (sc_s 6)))
 (let (($x7899 (= ?x926 ?x4818)))
 (let (($x11248 (not (and $x7899 $x4402 $x4404 $x4126))))
 (let ((?x6589 (used_gas_t x_0 w_4 w_3 0)))
 (let ((?x11857 (used_gas_s x_0 w_4 w_3 0)))
 (let (($x8176 (= ?x11857 ?x6589)))
 (let (($x4761 (forall ((w (_ BitVec 256)) )(let ((?x8365 (storage_t x_0 w_4 w_3 0 w)))
 (let ((?x11996 (storage_s x_0 w_4 w_3 0 w)))
 (= ?x11996 ?x8365))))
 ))
 (let (($x56 (exc_halt_t 0)))
 (let (($x57 (exc_halt_s 0)))
 (let (($x58 (= $x57 $x56)))
 (let (($x862 (forall ((n (_ BitVec 6)) )(let ((?x63 (sc_t 0)))
 (let (($x11489 (bvsle ?x63 n)))
 (let ((?x1908 (stack_t x_0 w_4 w_3 0 n)))
 (let ((?x1537 (stack_s x_0 w_4 w_3 0 n)))
 (let (($x9448 (= ?x1537 ?x1908)))
 (or $x9448 $x11489)))))))
 ))
 (let ((?x63 (sc_t 0)))
 (let ((?x72 (sc_s 0)))
 (let (($x73 (= ?x72 ?x63)))
 (let (($x3614 (exc_halt_t 3)))
 (let (($x7067 (or $x3614 (not (= ((_ extract 6 6) (bvadd (_ bv1 7) (concat (_ bv0 1) (sc_t 3)))) (_ bv0 1))))))
 (let (($x1777 (= $x7854 $x7067)))
 (let (($x5956 (forall ((w (_ BitVec 256)) )(let ((?x8100 (storage_t x_0 w_4 w_3 3 w)))
 (let ((?x8244 (storage_t x_0 w_4 w_3 4 w)))
 (= ?x8244 ?x8100))))
 ))
 (let (($x3407 (forall ((n (_ BitVec 6)) )(let ((?x6745 (stack_t x_0 w_4 w_3 3 n)))
 (let ((?x8355 (stack_t x_0 w_4 w_3 4 n)))
 (let ((?x11304 (sc_t 3)))
 (let (($x5286 (bvsle ?x11304 n)))
 (or $x5286 (= ?x8355 ?x6745)))))))
 ))
 (let (($x5791 (= ?x4818 (bvadd (_ bv1 6) (sc_t 3)))))
 (let (($x11862 (= (used_gas_t x_0 w_4 w_3 4) (+ 3 (used_gas_t x_0 w_4 w_3 3)))))
 (let (($x11994 (= (stack_t x_0 w_4 w_3 4 (sc_t 3)) w_4)))
 (let (($x10157 (not (= ((_ extract 6 6) (bvadd (_ bv1 7) (concat (_ bv0 1) (sc_t 2)))) (_ bv0 1)))))
 (let (($x8778 (not (bvsle (_ bv0 6) (bvadd (_ bv61 6) (sc_t 2))))))
 (let (($x8115 (exc_halt_t 2)))
 (let (($x4343 (forall ((w (_ BitVec 256)) )(let ((?x8725 (storage_t x_0 w_4 w_3 2 w)))
 (let ((?x8100 (storage_t x_0 w_4 w_3 3 w)))
 (= ?x8100 ?x8725))))
 ))
 (let (($x6464 (forall ((n (_ BitVec 6)) )(let ((?x6158 (sc_t 2)))
 (let ((?x1339 (bvadd (_ bv61 6) ?x6158)))
 (let (($x2660 (bvsle ?x1339 n)))
 (let ((?x4574 (stack_t x_0 w_4 w_3 2 n)))
 (let ((?x6745 (stack_t x_0 w_4 w_3 3 n)))
 (let (($x321 (= ?x6745 ?x4574)))
 (or $x321 $x2660))))))))
 ))
 (let ((?x11304 (sc_t 3)))
 (let (($x1640 (= ?x11304 (bvadd (_ bv1 6) (sc_t 2)))))
 (let ((?x7396 (used_gas_t x_0 w_4 w_3 3)))
 (let (($x1974 (= ?x7396 (+ 3 (used_gas_t x_0 w_4 w_3 2)))))
 (let ((?x6158 (sc_t 2)))
 (let ((?x2887 (bvadd (_ bv63 6) ?x6158)))
 (let ((?x7980 (stack_t x_0 w_4 w_3 2 ?x2887)))
 (let (($x11989 (= (stack_t x_0 w_4 w_3 3 (bvadd (_ bv62 6) ?x6158)) (stack_t x_0 w_4 w_3 2 (bvadd (_ bv62 6) ?x6158)))))
 (let ((?x1339 (bvadd (_ bv61 6) ?x6158)))
 (let ((?x3710 (stack_t x_0 w_4 w_3 2 ?x1339)))
 (let (($x8377 (exc_halt_t 1)))
 (let (($x6478 (not (bvsle (_ bv0 6) (bvadd (_ bv63 6) (sc_t 1))))))
 (let (($x6160 (not (= ((_ extract 6 6) (bvadd (_ bv1 7) (concat (_ bv0 1) (sc_t 1)))) (_ bv0 1)))))
 (let (($x7165 (forall ((w (_ BitVec 256)) )(let ((?x1494 (storage_t x_0 w_4 w_3 1 w)))
 (let ((?x8725 (storage_t x_0 w_4 w_3 2 w)))
 (= ?x8725 ?x1494))))
 ))
 (let (($x5016 (forall ((n (_ BitVec 6)) )(let ((?x7154 (sc_t 1)))
 (let ((?x1237 (bvadd (_ bv63 6) ?x7154)))
 (let (($x7709 (bvsle ?x1237 n)))
 (let ((?x9474 (stack_t x_0 w_4 w_3 1 n)))
 (let ((?x4574 (stack_t x_0 w_4 w_3 2 n)))
 (or (= ?x4574 ?x9474) $x7709)))))))
 ))
 (let (($x9815 (= ?x6158 (bvadd (_ bv1 6) (sc_t 1)))))
 (let ((?x4914 (used_gas_t x_0 w_4 w_3 2)))
 (let ((?x7154 (sc_t 1)))
 (let ((?x1237 (bvadd (_ bv63 6) ?x7154)))
 (let ((?x484 (stack_t x_0 w_4 w_3 1 ?x1237)))
 (let (($x6488 (= $x8377 (or $x56 (not (= ((_ extract 6 6) (bvadd (_ bv1 7) (concat (_ bv0 1) ?x63))) (_ bv0 1)))))))
 (let (($x11927 (forall ((w (_ BitVec 256)) )(let ((?x8365 (storage_t x_0 w_4 w_3 0 w)))
 (let ((?x1494 (storage_t x_0 w_4 w_3 1 w)))
 (= ?x1494 ?x8365))))
 ))
 (let (($x6969 (forall ((n (_ BitVec 6)) )(let ((?x63 (sc_t 0)))
 (let (($x11489 (bvsle ?x63 n)))
 (let ((?x1908 (stack_t x_0 w_4 w_3 0 n)))
 (let ((?x9474 (stack_t x_0 w_4 w_3 1 n)))
 (or (= ?x9474 ?x1908) $x11489))))))
 ))
 (let (($x10389 (= ?x7154 (bvadd (_ bv1 6) ?x63))))
 (let ((?x11872 (used_gas_t x_0 w_4 w_3 1)))
 (let (($x3583 (= ?x11872 (+ 3 ?x6589))))
 (let (($x10846 (= (stack_t x_0 w_4 w_3 1 ?x63) w_4)))
 (let (($x11317 (exc_halt_s 5)))
 (let (($x4653 (not (bvsle (_ bv0 6) (bvadd (_ bv62 6) (sc_s 5))))))
 (let (($x8811 (or $x4653 $x11317 (not (= ((_ extract 6 6) (bvadd (_ bv1 7) (concat (_ bv0 1) (sc_s 5)))) (_ bv0 1))))))
 (let (($x10364 (forall ((w (_ BitVec 256)) )(let ((?x1451 (storage_s x_0 w_4 w_3 5 w)))
 (let ((?x5972 (storage_s x_0 w_4 w_3 6 w)))
 (= ?x5972 ?x1451))))
 ))
 (let (($x4743 (forall ((n (_ BitVec 6)) )(let ((?x11766 (stack_s x_0 w_4 w_3 5 n)))
 (let ((?x4751 (stack_s x_0 w_4 w_3 6 n)))
 (let (($x6162 (= ?x4751 ?x11766)))
 (let ((?x4319 (sc_s 5)))
 (let ((?x1867 (bvadd (_ bv62 6) ?x4319)))
 (let (($x981 (bvsle ?x1867 n)))
 (or $x981 $x6162))))))))
 ))
 (let (($x6916 (= (used_gas_s x_0 w_4 w_3 6) (+ 3 (used_gas_s x_0 w_4 w_3 5)))))
 (let ((?x4319 (sc_s 5)))
 (let ((?x1539 (bvadd (_ bv63 6) ?x4319)))
 (let ((?x5058 (stack_s x_0 w_4 w_3 5 ?x1539)))
 (let ((?x1867 (bvadd (_ bv62 6) ?x4319)))
 (let ((?x1525 (stack_s x_0 w_4 w_3 5 ?x1867)))
 (let (($x7172 (exc_halt_s 4)))
 (let (($x2233 (not (= ((_ extract 6 6) (bvadd (_ bv1 7) (concat (_ bv0 1) (sc_s 4)))) (_ bv0 1)))))
 (let (($x10787 (forall ((w (_ BitVec 256)) )(let ((?x2079 (storage_s x_0 w_4 w_3 4 w)))
 (let ((?x1451 (storage_s x_0 w_4 w_3 5 w)))
 (= ?x1451 ?x2079))))
 ))
 (let (($x8079 (forall ((n (_ BitVec 6)) )(let ((?x7135 (stack_s x_0 w_4 w_3 4 n)))
 (let ((?x11766 (stack_s x_0 w_4 w_3 5 n)))
 (let (($x7977 (= ?x11766 ?x7135)))
 (or $x7977 (bvsle (bvadd (_ bv61 6) (sc_s 4)) n))))))
 ))
 (let (($x10051 (= ?x4319 (bvadd (_ bv1 6) (sc_s 4)))))
 (let ((?x11043 (used_gas_s x_0 w_4 w_3 5)))
 (let (($x3500 (= ?x11043 (+ 3 (used_gas_s x_0 w_4 w_3 4)))))
 (let ((?x4305 (sc_s 4)))
 (let ((?x2899 (bvadd (_ bv63 6) ?x4305)))
 (let ((?x6126 (stack_s x_0 w_4 w_3 4 ?x2899)))
 (let ((?x5987 (bvadd (_ bv62 6) ?x4305)))
 (let ((?x6651 (stack_s x_0 w_4 w_3 4 ?x5987)))
 (let ((?x2912 (bvadd (_ bv61 6) ?x4305)))
 (let ((?x7285 (stack_s x_0 w_4 w_3 4 ?x2912)))
 (let (($x11438 (= $x7172 (or (exc_halt_s 3) (not (bvsle (_ bv0 6) (bvadd (_ bv63 6) (sc_s 3))))))))
 (let (($x11987 (forall ((w (_ BitVec 256)) )(let ((?x7467 (storage_s x_0 w_4 w_3 3 w)))
 (let ((?x2079 (storage_s x_0 w_4 w_3 4 w)))
 (= ?x2079 ?x7467))))
 ))
 (let (($x11850 (forall ((n (_ BitVec 6)) )(let ((?x8022 (stack_s x_0 w_4 w_3 3 n)))
 (let ((?x7135 (stack_s x_0 w_4 w_3 4 n)))
 (let (($x5137 (= ?x7135 ?x8022)))
 (let ((?x275 (sc_s 3)))
 (let ((?x7749 (bvadd (_ bv63 6) ?x275)))
 (let (($x1218 (bvsle ?x7749 n)))
 (or $x1218 $x5137))))))))
 ))
 (let ((?x275 (sc_s 3)))
 (let ((?x7749 (bvadd (_ bv63 6) ?x275)))
 (let (($x1275 (= ?x4305 ?x7749)))
 (let ((?x2231 (used_gas_s x_0 w_4 w_3 4)))
 (let (($x6754 (not (= ((_ extract 6 6) (bvadd (_ bv1 7) (concat (_ bv0 1) (sc_s 2)))) (_ bv0 1)))))
 (let (($x247 (exc_halt_s 2)))
 (let (($x292 (exc_halt_s 3)))
 (let (($x1336 (= $x292 (or $x247 $x6754))))
 (let (($x7852 (forall ((w (_ BitVec 256)) )(let ((?x11266 (storage_s x_0 w_4 w_3 2 w)))
 (let ((?x7467 (storage_s x_0 w_4 w_3 3 w)))
 (= ?x7467 ?x11266))))
 ))
 (let (($x9300 (forall ((n (_ BitVec 6)) )(let ((?x11187 (stack_s x_0 w_4 w_3 2 n)))
 (let ((?x8022 (stack_s x_0 w_4 w_3 3 n)))
 (let (($x8479 (= ?x8022 ?x11187)))
 (let ((?x218 (sc_s 2)))
 (let (($x863 (bvsle ?x218 n)))
 (or $x863 $x8479)))))))
 ))
 (let (($x9686 (= ?x275 (bvadd (_ bv1 6) (sc_s 2)))))
 (let ((?x747 (used_gas_s x_0 w_4 w_3 3)))
 (let (($x2257 (not (= ((_ extract 6 6) (bvadd (_ bv1 7) (concat (_ bv0 1) (sc_s 1)))) (_ bv0 1)))))
 (let (($x189 (exc_halt_s 1)))
 (let (($x5935 (= $x247 (or $x189 $x2257))))
 (let (($x7548 (forall ((w (_ BitVec 256)) )(let ((?x10882 (storage_s x_0 w_4 w_3 1 w)))
 (let ((?x11266 (storage_s x_0 w_4 w_3 2 w)))
 (= ?x11266 ?x10882))))
 ))
 (let (($x5724 (forall ((n (_ BitVec 6)) )(let ((?x154 (sc_s 1)))
 (let (($x1977 (bvsle ?x154 n)))
 (let ((?x2071 (stack_s x_0 w_4 w_3 1 n)))
 (let ((?x11187 (stack_s x_0 w_4 w_3 2 n)))
 (let (($x214 (= ?x11187 ?x2071)))
 (or $x214 $x1977)))))))
 ))
 (let ((?x218 (sc_s 2)))
 (let (($x7493 (= ?x218 (bvadd (_ bv1 6) (sc_s 1)))))
 (let ((?x5456 (used_gas_s x_0 w_4 w_3 2)))
 (let (($x8857 (= ?x5456 (+ 3 (used_gas_s x_0 w_4 w_3 1)))))
 (let (($x9826 (= $x189 (or $x57 (not (= ((_ extract 6 6) (bvadd (_ bv1 7) (concat (_ bv0 1) ?x72))) (_ bv0 1)))))))
 (let (($x9381 (forall ((w (_ BitVec 256)) )(let ((?x11996 (storage_s x_0 w_4 w_3 0 w)))
 (let ((?x10882 (storage_s x_0 w_4 w_3 1 w)))
 (= ?x10882 ?x11996))))
 ))
 (let (($x3131 (forall ((n (_ BitVec 6)) )(let ((?x1537 (stack_s x_0 w_4 w_3 0 n)))
 (let ((?x2071 (stack_s x_0 w_4 w_3 1 n)))
 (let ((?x72 (sc_s 0)))
 (let (($x4372 (bvsle ?x72 n)))
 (or $x4372 (= ?x2071 ?x1537)))))))
 ))
 (let ((?x154 (sc_s 1)))
 (let (($x3182 (= ?x154 (bvadd (_ bv1 6) ?x72))))
 (let ((?x9183 (used_gas_s x_0 w_4 w_3 1)))
 (let (($x8742 (= ?x9183 (+ 3 ?x11857))))
 (let (($x6645 (= (stack_s x_0 w_4 w_3 1 ?x72) w_4)))
 (let (($x8451 (forall ((w (_ BitVec 256)) )(let ((?x11996 (storage_s x_0 w_4 w_3 0 w)))
 (= ?x11996 (_ bv0 256))))
 ))
 (let (($x7543 (= ?x11857 0)))
 (let (($x9420 (not $x57)))
 (let (($x10508 (= (stack_s x_0 w_4 w_3 0 (_ bv0 6)) x_0)))
 (let (($x7315 (= ?x72 (_ bv1 6))))
 (and $x7315 $x10508 $x9420 $x7543 $x8451 $x6645 $x8742 $x3182 $x3131 $x9381 $x9826 (= (stack_s x_0 w_4 w_3 2 ?x154) w_4) $x8857 $x7493 $x5724 $x7548 $x5935 (= (stack_s x_0 w_4 w_3 3 ?x218) w_3) (= ?x747 (+ 3 ?x5456)) $x9686 $x9300 $x7852 $x1336 (= ?x2231 (+ 2 ?x747)) $x1275 $x11850 $x11987 $x11438 (= ?x5058 ?x7285) (= (stack_s x_0 w_4 w_3 5 ?x2912) ?x7285) (= (stack_s x_0 w_4 w_3 5 ?x5987) ?x6651) (= (stack_s x_0 w_4 w_3 5 ?x2899) ?x6126) $x3500 $x10051 $x8079 $x10787 (= $x11317 (or $x2233 $x7172 (not (bvsle (_ bv0 6) ?x2912)))) (= (stack_s x_0 w_4 w_3 6 (bvadd (_ bv63 6) ?x926)) ?x1525) (= (stack_s x_0 w_4 w_3 6 ?x1867) ?x1525) (= (stack_s x_0 w_4 w_3 6 ?x1539) ?x5058) $x6916 (= ?x926 (bvadd (_ bv1 6) ?x4319)) $x4743 $x10364 (= $x772 $x8811) $x10846 $x3583 $x10389 $x6969 $x11927 $x6488 (= ?x7980 ?x484) (= (stack_t x_0 w_4 w_3 2 ?x1237) ?x484) (= ?x4914 (+ 3 ?x11872)) $x9815 $x5016 $x7165 (= $x8115 (or $x6160 $x6478 $x8377)) (= (stack_t x_0 w_4 w_3 3 (bvadd (_ bv63 6) ?x11304)) ?x3710) (= (stack_t x_0 w_4 w_3 3 ?x1339) ?x3710) $x11989 (= (stack_t x_0 w_4 w_3 3 ?x2887) ?x7980) $x1974 $x1640 $x6464 $x4343 (= $x3614 (or $x8115 $x8778 $x10157)) $x11994 $x11862 $x5791 $x3407 $x5956 $x1777 $x73 $x862 $x58 $x4761 $x8176 $x11248))))))))))))))))))))))))))))))))))))))))))))))))))))))))))))))))))))))))))))))))))))))))))))))))))))))))))))))))))))))))))))
 )
(check-sat)
(get-proof)
